
n=20; m= 10;


54	44	44	40	40	20	26	35	4	30	49	22	3	36	49	6	42	44	56	35
30	44	49	9	54	53	51	49	13	33	53	44	9	52	61	16	9	8	24	54
18	27	42	49	63	58	36	8	51	15	49	52	32	39	24	38	58	44	28	51
5	47	14	1	49	33	56	18	29	7	19	52	12	62	37	27	18	16	55	10
57	51	53	20	27	43	21	33	9	24	10	29	9	17	6	47	55	35	15	33
7	1	51	29	38	48	59	31	4	39	9	15	44	10	36	9	61	35	8	48
35	40	43	45	13	9	17	7	15	27	27	23	2	20	51	10	44	49	19	40
6	45	32	54	10	57	11	53	33	47	10	31	51	29	10	41	46	26	57	11
8	4	24	40	33	41	11	43	39	35	50	31	34	24	7	14	47	43	58	41
57	51	53	20	27	43	21	33	9	24	10	29	9	17	6	47	55	35	15	21
 
 
 
